p tw 176 39601 2 
1 89 
1 92 
1 94 
1 96 
1 98 
1 100 
1 102 
1 104 
1 106 
1 108 
1 110 
1 112 
1 114 
1 116 
1 118 
1 120 
1 122 
1 124 
1 126 
1 128 
1 130 
1 132 
1 134 
1 136 
1 138 
1 140 
1 142 
1 144 
1 146 
1 148 
1 150 
1 152 
1 154 
1 156 
1 158 
1 160 
1 162 
1 164 
1 166 
1 168 
1 170 
1 172 
1 174 
1 176 
2 90 
2 91 
2 93 
2 95 
2 97 
2 99 
2 101 
2 103 
2 105 
2 107 
2 109 
2 111 
2 113 
2 115 
2 117 
2 119 
2 121 
2 123 
2 125 
2 127 
2 129 
2 131 
2 133 
2 135 
2 137 
2 139 
2 141 
2 143 
2 145 
2 147 
2 149 
2 151 
2 153 
2 155 
2 157 
2 159 
2 161 
2 163 
2 165 
2 167 
2 169 
2 171 
2 173 
2 175 
3 4 
3 89 
3 91 
3 94 
3 95 
3 97 
3 100 
3 101 
3 104 
3 105 
3 107 
3 110 
3 112 
3 114 
3 115 
3 118 
3 120 
3 122 
3 124 
3 126 
3 127 
3 129 
3 131 
3 134 
3 135 
3 138 
3 140 
3 142 
3 143 
3 145 
3 147 
3 149 
3 151 
3 154 
3 155 
3 157 
3 159 
3 162 
3 164 
3 165 
3 168 
3 169 
3 172 
3 174 
3 175 
4 90 
4 92 
4 93 
4 96 
4 98 
4 99 
4 102 
4 103 
4 106 
4 108 
4 109 
4 111 
4 113 
4 116 
4 117 
4 119 
4 121 
4 123 
4 125 
4 128 
4 130 
4 132 
4 133 
4 136 
4 137 
4 139 
4 141 
4 144 
4 146 
4 148 
4 150 
4 152 
4 153 
4 156 
4 158 
4 160 
4 161 
4 163 
4 166 
4 167 
4 170 
4 171 
4 173 
4 176 
5 6 
5 89 
5 91 
5 93 
5 96 
5 97 
5 99 
5 102 
5 103 
5 106 
5 107 
5 109 
5 112 
5 114 
5 116 
5 117 
5 120 
5 122 
5 124 
5 126 
5 128 
5 129 
5 131 
5 133 
5 136 
5 137 
5 140 
5 142 
5 144 
5 145 
5 147 
5 149 
5 151 
5 153 
5 156 
5 157 
5 159 
5 161 
5 164 
5 166 
5 167 
5 170 
5 171 
5 174 
5 176 
6 90 
6 92 
6 94 
6 95 
6 98 
6 100 
6 101 
6 104 
6 105 
6 108 
6 110 
6 111 
6 113 
6 115 
6 118 
6 119 
6 121 
6 123 
6 125 
6 127 
6 130 
6 132 
6 134 
6 135 
6 138 
6 139 
6 141 
6 143 
6 146 
6 148 
6 150 
6 152 
6 154 
6 155 
6 158 
6 160 
6 162 
6 163 
6 165 
6 168 
6 169 
6 172 
6 173 
6 175 
7 8 
7 89 
7 92 
7 93 
7 95 
7 98 
7 99 
7 101 
7 104 
7 105 
7 108 
7 109 
7 111 
7 114 
7 116 
7 118 
7 119 
7 122 
7 124 
7 126 
7 128 
7 130 
7 131 
7 133 
7 135 
7 138 
7 139 
7 142 
7 144 
7 146 
7 147 
7 149 
7 151 
7 153 
7 155 
7 158 
7 159 
7 161 
7 163 
7 166 
7 168 
7 169 
7 172 
7 173 
7 176 
8 90 
8 91 
8 94 
8 96 
8 97 
8 100 
8 102 
8 103 
8 106 
8 107 
8 110 
8 112 
8 113 
8 115 
8 117 
8 120 
8 121 
8 123 
8 125 
8 127 
8 129 
8 132 
8 134 
8 136 
8 137 
8 140 
8 141 
8 143 
8 145 
8 148 
8 150 
8 152 
8 154 
8 156 
8 157 
8 160 
8 162 
8 164 
8 165 
8 167 
8 170 
8 171 
8 174 
8 175 
9 10 
9 89 
9 92 
9 94 
9 95 
9 97 
9 100 
9 101 
9 103 
9 106 
9 107 
9 110 
9 111 
9 113 
9 116 
9 118 
9 120 
9 121 
9 124 
9 126 
9 128 
9 130 
9 132 
9 133 
9 135 
9 137 
9 140 
9 141 
9 144 
9 146 
9 148 
9 149 
9 151 
9 153 
9 155 
9 157 
9 160 
9 161 
9 163 
9 165 
9 168 
9 170 
9 171 
9 174 
9 175 
10 90 
10 91 
10 93 
10 96 
10 98 
10 99 
10 102 
10 104 
10 105 
10 108 
10 109 
10 112 
10 114 
10 115 
10 117 
10 119 
10 122 
10 123 
10 125 
10 127 
10 129 
10 131 
10 134 
10 136 
10 138 
10 139 
10 142 
10 143 
10 145 
10 147 
10 150 
10 152 
10 154 
10 156 
10 158 
10 159 
10 162 
10 164 
10 166 
10 167 
10 169 
10 172 
10 173 
10 176 
11 12 
11 89 
11 91 
11 94 
11 96 
11 97 
11 99 
11 102 
11 103 
11 105 
11 108 
11 109 
11 112 
11 113 
11 115 
11 118 
11 120 
11 122 
11 123 
11 126 
11 128 
11 130 
11 132 
11 134 
11 135 
11 137 
11 139 
11 142 
11 143 
11 146 
11 148 
11 150 
11 151 
11 153 
11 155 
11 157 
11 159 
11 162 
11 163 
11 165 
11 167 
11 170 
11 172 
11 173 
11 176 
12 90 
12 92 
12 93 
12 95 
12 98 
12 100 
12 101 
12 104 
12 106 
12 107 
12 110 
12 111 
12 114 
12 116 
12 117 
12 119 
12 121 
12 124 
12 125 
12 127 
12 129 
12 131 
12 133 
12 136 
12 138 
12 140 
12 141 
12 144 
12 145 
12 147 
12 149 
12 152 
12 154 
12 156 
12 158 
12 160 
12 161 
12 164 
12 166 
12 168 
12 169 
12 171 
12 174 
12 175 
13 14 
13 89 
13 92 
13 93 
13 96 
13 98 
13 99 
13 101 
13 104 
13 105 
13 107 
13 110 
13 111 
13 114 
13 115 
13 117 
13 120 
13 122 
13 124 
13 125 
13 128 
13 130 
13 132 
13 134 
13 136 
13 137 
13 139 
13 141 
13 144 
13 145 
13 148 
13 150 
13 152 
13 153 
13 155 
13 157 
13 159 
13 161 
13 164 
13 165 
13 167 
13 169 
13 172 
13 174 
13 175 
14 90 
14 91 
14 94 
14 95 
14 97 
14 100 
14 102 
14 103 
14 106 
14 108 
14 109 
14 112 
14 113 
14 116 
14 118 
14 119 
14 121 
14 123 
14 126 
14 127 
14 129 
14 131 
14 133 
14 135 
14 138 
14 140 
14 142 
14 143 
14 146 
14 147 
14 149 
14 151 
14 154 
14 156 
14 158 
14 160 
14 162 
14 163 
14 166 
14 168 
14 170 
14 171 
14 173 
14 176 
15 16 
15 89 
15 91 
15 94 
15 95 
15 98 
15 100 
15 101 
15 103 
15 106 
15 107 
15 109 
15 112 
15 113 
15 116 
15 117 
15 119 
15 122 
15 124 
15 126 
15 127 
15 130 
15 132 
15 134 
15 136 
15 138 
15 139 
15 141 
15 143 
15 146 
15 147 
15 150 
15 152 
15 154 
15 155 
15 157 
15 159 
15 161 
15 163 
15 166 
15 167 
15 169 
15 171 
15 174 
15 176 
16 90 
16 92 
16 93 
16 96 
16 97 
16 99 
16 102 
16 104 
16 105 
16 108 
16 110 
16 111 
16 114 
16 115 
16 118 
16 120 
16 121 
16 123 
16 125 
16 128 
16 129 
16 131 
16 133 
16 135 
16 137 
16 140 
16 142 
16 144 
16 145 
16 148 
16 149 
16 151 
16 153 
16 156 
16 158 
16 160 
16 162 
16 164 
16 165 
16 168 
16 170 
16 172 
16 173 
16 175 
17 18 
17 89 
17 92 
17 93 
17 96 
17 97 
17 100 
17 102 
17 103 
17 105 
17 108 
17 109 
17 111 
17 114 
17 115 
17 118 
17 119 
17 121 
17 124 
17 126 
17 128 
17 129 
17 132 
17 134 
17 136 
17 138 
17 140 
17 141 
17 143 
17 145 
17 148 
17 149 
17 152 
17 154 
17 156 
17 157 
17 159 
17 161 
17 163 
17 165 
17 168 
17 169 
17 171 
17 173 
17 176 
18 90 
18 91 
18 94 
18 95 
18 98 
18 99 
18 101 
18 104 
18 106 
18 107 
18 110 
18 112 
18 113 
18 116 
18 117 
18 120 
18 122 
18 123 
18 125 
18 127 
18 130 
18 131 
18 133 
18 135 
18 137 
18 139 
18 142 
18 144 
18 146 
18 147 
18 150 
18 151 
18 153 
18 155 
18 158 
18 160 
18 162 
18 164 
18 166 
18 167 
18 170 
18 172 
18 174 
18 175 
19 20 
19 89 
19 92 
19 94 
19 95 
19 98 
19 99 
19 102 
19 104 
19 105 
19 107 
19 110 
19 111 
19 113 
19 116 
19 117 
19 120 
19 121 
19 123 
19 126 
19 128 
19 130 
19 131 
19 134 
19 136 
19 138 
19 140 
19 142 
19 143 
19 145 
19 147 
19 150 
19 151 
19 154 
19 156 
19 158 
19 159 
19 161 
19 163 
19 165 
19 167 
19 170 
19 171 
19 173 
19 175 
20 90 
20 91 
20 93 
20 96 
20 97 
20 100 
20 101 
20 103 
20 106 
20 108 
20 109 
20 112 
20 114 
20 115 
20 118 
20 119 
20 122 
20 124 
20 125 
20 127 
20 129 
20 132 
20 133 
20 135 
20 137 
20 139 
20 141 
20 144 
20 146 
20 148 
20 149 
20 152 
20 153 
20 155 
20 157 
20 160 
20 162 
20 164 
20 166 
20 168 
20 169 
20 172 
20 174 
20 176 
21 22 
21 89 
21 91 
21 94 
21 96 
21 97 
21 100 
21 101 
21 104 
21 106 
21 107 
21 109 
21 112 
21 113 
21 115 
21 118 
21 119 
21 122 
21 123 
21 125 
21 128 
21 130 
21 132 
21 133 
21 136 
21 138 
21 140 
21 142 
21 144 
21 145 
21 147 
21 149 
21 152 
21 153 
21 156 
21 158 
21 160 
21 161 
21 163 
21 165 
21 167 
21 169 
21 172 
21 173 
21 175 
22 90 
22 92 
22 93 
22 95 
22 98 
22 99 
22 102 
22 103 
22 105 
22 108 
22 110 
22 111 
22 114 
22 116 
22 117 
22 120 
22 121 
22 124 
22 126 
22 127 
22 129 
22 131 
22 134 
22 135 
22 137 
22 139 
22 141 
22 143 
22 146 
22 148 
22 150 
22 151 
22 154 
22 155 
22 157 
22 159 
22 162 
22 164 
22 166 
22 168 
22 170 
22 171 
22 174 
22 176 
23 24 
23 89 
23 91 
23 93 
23 96 
23 98 
23 99 
23 102 
23 103 
23 106 
23 108 
23 109 
23 111 
23 114 
23 115 
23 117 
23 120 
23 121 
23 124 
23 125 
23 127 
23 130 
23 132 
23 134 
23 135 
23 138 
23 140 
23 142 
23 144 
23 146 
23 147 
23 149 
23 151 
23 154 
23 155 
23 158 
23 160 
23 162 
23 163 
23 165 
23 167 
23 169 
23 171 
23 174 
23 175 
24 90 
24 92 
24 94 
24 95 
24 97 
24 100 
24 101 
24 104 
24 105 
24 107 
24 110 
24 112 
24 113 
24 116 
24 118 
24 119 
24 122 
24 123 
24 126 
24 128 
24 129 
24 131 
24 133 
24 136 
24 137 
24 139 
24 141 
24 143 
24 145 
24 148 
24 150 
24 152 
24 153 
24 156 
24 157 
24 159 
24 161 
24 164 
24 166 
24 168 
24 170 
24 172 
24 173 
24 176 
25 26 
25 89 
25 91 
25 93 
25 95 
25 98 
25 100 
25 101 
25 104 
25 105 
25 108 
25 110 
25 111 
25 113 
25 116 
25 117 
25 119 
25 122 
25 123 
25 126 
25 127 
25 129 
25 132 
25 134 
25 136 
25 137 
25 140 
25 142 
25 144 
25 146 
25 148 
25 149 
25 151 
25 153 
25 156 
25 157 
25 160 
25 162 
25 164 
25 165 
25 167 
25 169 
25 171 
25 173 
25 176 
26 90 
26 92 
26 94 
26 96 
26 97 
26 99 
26 102 
26 103 
26 106 
26 107 
26 109 
26 112 
26 114 
26 115 
26 118 
26 120 
26 121 
26 124 
26 125 
26 128 
26 130 
26 131 
26 133 
26 135 
26 138 
26 139 
26 141 
26 143 
26 145 
26 147 
26 150 
26 152 
26 154 
26 155 
26 158 
26 159 
26 161 
26 163 
26 166 
26 168 
26 170 
26 172 
26 174 
26 175 
27 28 
27 89 
27 92 
27 93 
27 95 
27 97 
27 100 
27 102 
27 103 
27 106 
27 107 
27 110 
27 112 
27 113 
27 115 
27 118 
27 119 
27 121 
27 124 
27 125 
27 128 
27 129 
27 131 
27 134 
27 136 
27 138 
27 139 
27 142 
27 144 
27 146 
27 148 
27 150 
27 151 
27 153 
27 155 
27 158 
27 159 
27 162 
27 164 
27 166 
27 167 
27 169 
27 171 
27 173 
27 175 
28 90 
28 91 
28 94 
28 96 
28 98 
28 99 
28 101 
28 104 
28 105 
28 108 
28 109 
28 111 
28 114 
28 116 
28 117 
28 120 
28 122 
28 123 
28 126 
28 127 
28 130 
28 132 
28 133 
28 135 
28 137 
28 140 
28 141 
28 143 
28 145 
28 147 
28 149 
28 152 
28 154 
28 156 
28 157 
28 160 
28 161 
28 163 
28 165 
28 168 
28 170 
28 172 
28 174 
28 176 
29 30 
29 89 
29 91 
29 94 
29 95 
29 97 
29 99 
29 102 
29 104 
29 105 
29 108 
29 109 
29 112 
29 114 
29 115 
29 117 
29 120 
29 121 
29 123 
29 126 
29 127 
29 130 
29 131 
29 133 
29 136 
29 138 
29 140 
29 141 
29 144 
29 146 
29 148 
29 150 
29 152 
29 153 
29 155 
29 157 
29 160 
29 161 
29 164 
29 166 
29 168 
29 169 
29 171 
29 173 
29 175 
30 90 
30 92 
30 93 
30 96 
30 98 
30 100 
30 101 
30 103 
30 106 
30 107 
30 110 
30 111 
30 113 
30 116 
30 118 
30 119 
30 122 
30 124 
30 125 
30 128 
30 129 
30 132 
30 134 
30 135 
30 137 
30 139 
30 142 
30 143 
30 145 
30 147 
30 149 
30 151 
30 154 
30 156 
30 158 
30 159 
30 162 
30 163 
30 165 
30 167 
30 170 
30 172 
30 174 
30 176 
31 32 
31 89 
31 91 
31 93 
31 96 
31 97 
31 99 
31 101 
31 104 
31 106 
31 107 
31 110 
31 111 
31 114 
31 116 
31 117 
31 119 
31 122 
31 123 
31 125 
31 128 
31 129 
31 132 
31 133 
31 135 
31 138 
31 140 
31 142 
31 143 
31 146 
31 148 
31 150 
31 152 
31 154 
31 155 
31 157 
31 159 
31 162 
31 163 
31 166 
31 168 
31 170 
31 171 
31 173 
31 175 
32 90 
32 92 
32 94 
32 95 
32 98 
32 100 
32 102 
32 103 
32 105 
32 108 
32 109 
32 112 
32 113 
32 115 
32 118 
32 120 
32 121 
32 124 
32 126 
32 127 
32 130 
32 131 
32 134 
32 136 
32 137 
32 139 
32 141 
32 144 
32 145 
32 147 
32 149 
32 151 
32 153 
32 156 
32 158 
32 160 
32 161 
32 164 
32 165 
32 167 
32 169 
32 172 
32 174 
32 176 
33 34 
33 89 
33 91 
33 93 
33 95 
33 98 
33 99 
33 101 
33 103 
33 106 
33 108 
33 109 
33 112 
33 113 
33 116 
33 118 
33 119 
33 121 
33 124 
33 125 
33 127 
33 130 
33 131 
33 134 
33 135 
33 137 
33 140 
33 142 
33 144 
33 145 
33 148 
33 150 
33 152 
33 154 
33 156 
33 157 
33 159 
33 161 
33 164 
33 165 
33 168 
33 170 
33 172 
33 173 
33 175 
34 90 
34 92 
34 94 
34 96 
34 97 
34 100 
34 102 
34 104 
34 105 
34 107 
34 110 
34 111 
34 114 
34 115 
34 117 
34 120 
34 122 
34 123 
34 126 
34 128 
34 129 
34 132 
34 133 
34 136 
34 138 
34 139 
34 141 
34 143 
34 146 
34 147 
34 149 
34 151 
34 153 
34 155 
34 158 
34 160 
34 162 
34 163 
34 166 
34 167 
34 169 
34 171 
34 174 
34 176 
35 36 
35 89 
35 91 
35 93 
35 95 
35 97 
35 100 
35 101 
35 103 
35 105 
35 108 
35 110 
35 111 
35 114 
35 115 
35 118 
35 120 
35 121 
35 123 
35 126 
35 127 
35 129 
35 132 
35 133 
35 136 
35 137 
35 139 
35 142 
35 144 
35 146 
35 147 
35 150 
35 152 
35 154 
35 156 
35 158 
35 159 
35 161 
35 163 
35 166 
35 167 
35 170 
35 172 
35 174 
35 175 
36 90 
36 92 
36 94 
36 96 
36 98 
36 99 
36 102 
36 104 
36 106 
36 107 
36 109 
36 112 
36 113 
36 116 
36 117 
36 119 
36 122 
36 124 
36 125 
36 128 
36 130 
36 131 
36 134 
36 135 
36 138 
36 140 
36 141 
36 143 
36 145 
36 148 
36 149 
36 151 
36 153 
36 155 
36 157 
36 160 
36 162 
36 164 
36 165 
36 168 
36 169 
36 171 
36 173 
36 176 
37 38 
37 89 
37 91 
37 93 
37 95 
37 97 
37 99 
37 102 
37 103 
37 105 
37 107 
37 110 
37 112 
37 113 
37 116 
37 117 
37 120 
37 122 
37 123 
37 125 
37 128 
37 129 
37 131 
37 134 
37 135 
37 138 
37 139 
37 141 
37 144 
37 146 
37 148 
37 149 
37 152 
37 154 
37 156 
37 158 
37 160 
37 161 
37 163 
37 165 
37 168 
37 169 
37 172 
37 174 
37 176 
38 90 
38 92 
38 94 
38 96 
38 98 
38 100 
38 101 
38 104 
38 106 
38 108 
38 109 
38 111 
38 114 
38 115 
38 118 
38 119 
38 121 
38 124 
38 126 
38 127 
38 130 
38 132 
38 133 
38 136 
38 137 
38 140 
38 142 
38 143 
38 145 
38 147 
38 150 
38 151 
38 153 
38 155 
38 157 
38 159 
38 162 
38 164 
38 166 
38 167 
38 170 
38 171 
38 173 
38 175 
39 40 
39 89 
39 92 
39 93 
39 95 
39 97 
39 99 
39 101 
39 104 
39 105 
39 107 
39 109 
39 112 
39 114 
39 115 
39 118 
39 119 
39 122 
39 124 
39 125 
39 127 
39 130 
39 131 
39 133 
39 136 
39 137 
39 140 
39 141 
39 143 
39 146 
39 148 
39 150 
39 151 
39 154 
39 156 
39 158 
39 160 
39 162 
39 163 
39 165 
39 167 
39 170 
39 171 
39 174 
39 176 
40 90 
40 91 
40 94 
40 96 
40 98 
40 100 
40 102 
40 103 
40 106 
40 108 
40 110 
40 111 
40 113 
40 116 
40 117 
40 120 
40 121 
40 123 
40 126 
40 128 
40 129 
40 132 
40 134 
40 135 
40 138 
40 139 
40 142 
40 144 
40 145 
40 147 
40 149 
40 152 
40 153 
40 155 
40 157 
40 159 
40 161 
40 164 
40 166 
40 168 
40 169 
40 172 
40 173 
40 175 
41 42 
41 89 
41 92 
41 94 
41 95 
41 97 
41 99 
41 101 
41 103 
41 106 
41 107 
41 109 
41 111 
41 114 
41 116 
41 117 
41 120 
41 121 
41 124 
41 126 
41 127 
41 129 
41 132 
41 133 
41 135 
41 138 
41 139 
41 142 
41 143 
41 145 
41 148 
41 150 
41 152 
41 153 
41 156 
41 158 
41 160 
41 162 
41 164 
41 165 
41 167 
41 169 
41 172 
41 173 
41 176 
42 90 
42 91 
42 93 
42 96 
42 98 
42 100 
42 102 
42 104 
42 105 
42 108 
42 110 
42 112 
42 113 
42 115 
42 118 
42 119 
42 122 
42 123 
42 125 
42 128 
42 130 
42 131 
42 134 
42 136 
42 137 
42 140 
42 141 
42 144 
42 146 
42 147 
42 149 
42 151 
42 154 
42 155 
42 157 
42 159 
42 161 
42 163 
42 166 
42 168 
42 170 
42 171 
42 174 
42 175 
43 44 
43 89 
43 92 
43 94 
43 96 
43 97 
43 99 
43 101 
43 103 
43 105 
43 108 
43 109 
43 111 
43 113 
43 116 
43 118 
43 119 
43 122 
43 123 
43 126 
43 128 
43 129 
43 131 
43 134 
43 135 
43 137 
43 140 
43 141 
43 144 
43 145 
43 147 
43 150 
43 152 
43 154 
43 155 
43 158 
43 160 
43 162 
43 164 
43 166 
43 167 
43 169 
43 171 
43 174 
43 175 
44 90 
44 91 
44 93 
44 95 
44 98 
44 100 
44 102 
44 104 
44 106 
44 107 
44 110 
44 112 
44 114 
44 115 
44 117 
44 120 
44 121 
44 124 
44 125 
44 127 
44 130 
44 132 
44 133 
44 136 
44 138 
44 139 
44 142 
44 143 
44 146 
44 148 
44 149 
44 151 
44 153 
44 156 
44 157 
44 159 
44 161 
44 163 
44 165 
44 168 
44 170 
44 172 
44 173 
44 176 
45 46 
45 89 
45 91 
45 94 
45 96 
45 98 
45 99 
45 101 
45 103 
45 105 
45 107 
45 110 
45 111 
45 113 
45 115 
45 118 
45 120 
45 121 
45 124 
45 125 
45 128 
45 130 
45 131 
45 133 
45 136 
45 137 
45 139 
45 142 
45 143 
45 146 
45 147 
45 149 
45 152 
45 154 
45 156 
45 157 
45 160 
45 162 
45 164 
45 166 
45 168 
45 169 
45 171 
45 173 
45 176 
46 90 
46 92 
46 93 
46 95 
46 97 
46 100 
46 102 
46 104 
46 106 
46 108 
46 109 
46 112 
46 114 
46 116 
46 117 
46 119 
46 122 
46 123 
46 126 
46 127 
46 129 
46 132 
46 134 
46 135 
46 138 
46 140 
46 141 
46 144 
46 145 
46 148 
46 150 
46 151 
46 153 
46 155 
46 158 
46 159 
46 161 
46 163 
46 165 
46 167 
46 170 
46 172 
46 174 
46 175 
47 48 
47 89 
47 92 
47 93 
47 96 
47 98 
47 100 
47 101 
47 103 
47 105 
47 107 
47 109 
47 112 
47 113 
47 115 
47 117 
47 120 
47 122 
47 123 
47 126 
47 127 
47 130 
47 132 
47 133 
47 135 
47 138 
47 139 
47 141 
47 144 
47 145 
47 148 
47 149 
47 151 
47 154 
47 156 
47 158 
47 159 
47 162 
47 164 
47 166 
47 168 
47 170 
47 171 
47 173 
47 175 
48 90 
48 91 
48 94 
48 95 
48 97 
48 99 
48 102 
48 104 
48 106 
48 108 
48 110 
48 111 
48 114 
48 116 
48 118 
48 119 
48 121 
48 124 
48 125 
48 128 
48 129 
48 131 
48 134 
48 136 
48 137 
48 140 
48 142 
48 143 
48 146 
48 147 
48 150 
48 152 
48 153 
48 155 
48 157 
48 160 
48 161 
48 163 
48 165 
48 167 
48 169 
48 172 
48 174 
48 176 
49 50 
49 89 
49 91 
49 94 
49 95 
49 98 
49 100 
49 102 
49 103 
49 105 
49 107 
49 109 
49 111 
49 114 
49 115 
49 117 
49 119 
49 122 
49 124 
49 125 
49 128 
49 129 
49 132 
49 134 
49 135 
49 137 
49 140 
49 141 
49 143 
49 146 
49 147 
49 150 
49 151 
49 153 
49 156 
49 158 
49 160 
49 161 
49 164 
49 166 
49 168 
49 170 
49 172 
49 173 
49 175 
50 90 
50 92 
50 93 
50 96 
50 97 
50 99 
50 101 
50 104 
50 106 
50 108 
50 110 
50 112 
50 113 
50 116 
50 118 
50 120 
50 121 
50 123 
50 126 
50 127 
50 130 
50 131 
50 133 
50 136 
50 138 
50 139 
50 142 
50 144 
50 145 
50 148 
50 149 
50 152 
50 154 
50 155 
50 157 
50 159 
50 162 
50 163 
50 165 
50 167 
50 169 
50 171 
50 174 
50 176 
51 52 
51 89 
51 91 
51 93 
51 96 
51 97 
51 100 
51 102 
51 104 
51 105 
51 107 
51 109 
51 111 
51 113 
51 116 
51 117 
51 119 
51 121 
51 124 
51 126 
51 127 
51 130 
51 131 
51 134 
51 136 
51 137 
51 139 
51 142 
51 143 
51 145 
51 148 
51 149 
51 152 
51 153 
51 155 
51 158 
51 160 
51 162 
51 163 
51 166 
51 168 
51 170 
51 172 
51 174 
51 175 
52 90 
52 92 
52 94 
52 95 
52 98 
52 99 
52 101 
52 103 
52 106 
52 108 
52 110 
52 112 
52 114 
52 115 
52 118 
52 120 
52 122 
52 123 
52 125 
52 128 
52 129 
52 132 
52 133 
52 135 
52 138 
52 140 
52 141 
52 144 
52 146 
52 147 
52 150 
52 151 
52 154 
52 156 
52 157 
52 159 
52 161 
52 164 
52 165 
52 167 
52 169 
52 171 
52 173 
52 176 
53 54 
53 89 
53 91 
53 93 
53 95 
53 98 
53 99 
53 102 
53 104 
53 106 
53 107 
53 109 
53 111 
53 113 
53 115 
53 118 
53 119 
53 121 
53 123 
53 126 
53 128 
53 129 
53 132 
53 133 
53 136 
53 138 
53 139 
53 141 
53 144 
53 145 
53 147 
53 150 
53 151 
53 154 
53 155 
53 157 
53 160 
53 162 
53 164 
53 165 
53 168 
53 170 
53 172 
53 174 
53 176 
54 90 
54 92 
54 94 
54 96 
54 97 
54 100 
54 101 
54 103 
54 105 
54 108 
54 110 
54 112 
54 114 
54 116 
54 117 
54 120 
54 122 
54 124 
54 125 
54 127 
54 130 
54 131 
54 134 
54 135 
54 137 
54 140 
54 142 
54 143 
54 146 
54 148 
54 149 
54 152 
54 153 
54 156 
54 158 
54 159 
54 161 
54 163 
54 166 
54 167 
54 169 
54 171 
54 173 
54 175 
55 56 
55 89 
55 92 
55 93 
55 95 
55 97 
55 100 
55 101 
55 104 
55 106 
55 108 
55 109 
55 111 
55 113 
55 115 
55 117 
55 120 
55 121 
55 123 
55 125 
55 128 
55 130 
55 131 
55 134 
55 135 
55 138 
55 140 
55 141 
55 143 
55 146 
55 147 
55 149 
55 152 
55 153 
55 156 
55 157 
55 159 
55 162 
55 164 
55 166 
55 167 
55 170 
55 172 
55 174 
55 176 
56 90 
56 91 
56 94 
56 96 
56 98 
56 99 
56 102 
56 103 
56 105 
56 107 
56 110 
56 112 
56 114 
56 116 
56 118 
56 119 
56 122 
56 124 
56 126 
56 127 
56 129 
56 132 
56 133 
56 136 
56 137 
56 139 
56 142 
56 144 
56 145 
56 148 
56 150 
56 151 
56 154 
56 155 
56 158 
56 160 
56 161 
56 163 
56 165 
56 168 
56 169 
56 171 
56 173 
56 175 
57 58 
57 89 
57 92 
57 94 
57 95 
57 97 
57 99 
57 102 
57 103 
57 106 
57 108 
57 110 
57 111 
57 113 
57 115 
57 117 
57 119 
57 122 
57 123 
57 125 
57 127 
57 130 
57 132 
57 133 
57 136 
57 137 
57 140 
57 142 
57 143 
57 145 
57 148 
57 149 
57 151 
57 154 
57 155 
57 158 
57 159 
57 161 
57 164 
57 166 
57 168 
57 169 
57 172 
57 174 
57 176 
58 90 
58 91 
58 93 
58 96 
58 98 
58 100 
58 101 
58 104 
58 105 
58 107 
58 109 
58 112 
58 114 
58 116 
58 118 
58 120 
58 121 
58 124 
58 126 
58 128 
58 129 
58 131 
58 134 
58 135 
58 138 
58 139 
58 141 
58 144 
58 146 
58 147 
58 150 
58 152 
58 153 
58 156 
58 157 
58 160 
58 162 
58 163 
58 165 
58 167 
58 170 
58 171 
58 173 
58 175 
59 60 
59 89 
59 92 
59 94 
59 96 
59 97 
59 99 
59 101 
59 104 
59 105 
59 108 
59 110 
59 112 
59 113 
59 115 
59 117 
59 119 
59 121 
59 124 
59 125 
59 127 
59 129 
59 132 
59 134 
59 135 
59 138 
59 139 
59 142 
59 144 
59 145 
59 147 
59 150 
59 151 
59 153 
59 156 
59 157 
59 160 
59 161 
59 163 
59 166 
59 168 
59 170 
59 171 
59 174 
59 176 
60 90 
60 91 
60 93 
60 95 
60 98 
60 100 
60 102 
60 103 
60 106 
60 107 
60 109 
60 111 
60 114 
60 116 
60 118 
60 120 
60 122 
60 123 
60 126 
60 128 
60 130 
60 131 
60 133 
60 136 
60 137 
60 140 
60 141 
60 143 
60 146 
60 148 
60 149 
60 152 
60 154 
60 155 
60 158 
60 159 
60 162 
60 164 
60 165 
60 167 
60 169 
60 172 
60 173 
60 175 
61 62 
61 89 
61 92 
61 94 
61 96 
61 98 
61 99 
61 101 
61 103 
61 106 
61 107 
61 110 
61 112 
61 114 
61 115 
61 117 
61 119 
61 121 
61 123 
61 126 
61 127 
61 129 
61 131 
61 134 
61 136 
61 137 
61 140 
61 141 
61 144 
61 146 
61 147 
61 149 
61 152 
61 153 
61 155 
61 158 
61 159 
61 162 
61 163 
61 165 
61 168 
61 170 
61 172 
61 173 
61 176 
62 90 
62 91 
62 93 
62 95 
62 97 
62 100 
62 102 
62 104 
62 105 
62 108 
62 109 
62 111 
62 113 
62 116 
62 118 
62 120 
62 122 
62 124 
62 125 
62 128 
62 130 
62 132 
62 133 
62 135 
62 138 
62 139 
62 142 
62 143 
62 145 
62 148 
62 150 
62 151 
62 154 
62 156 
62 157 
62 160 
62 161 
62 164 
62 166 
62 167 
62 169 
62 171 
62 174 
62 175 
63 64 
63 89 
63 92 
63 94 
63 96 
63 98 
63 100 
63 101 
63 103 
63 105 
63 108 
63 109 
63 112 
63 114 
63 116 
63 117 
63 119 
63 121 
63 123 
63 125 
63 128 
63 129 
63 131 
63 133 
63 136 
63 138 
63 139 
63 142 
63 143 
63 146 
63 148 
63 149 
63 151 
63 154 
63 155 
63 157 
63 160 
63 161 
63 164 
63 165 
63 167 
63 170 
63 172 
63 174 
63 175 
64 90 
64 91 
64 93 
64 95 
64 97 
64 99 
64 102 
64 104 
64 106 
64 107 
64 110 
64 111 
64 113 
64 115 
64 118 
64 120 
64 122 
64 124 
64 126 
64 127 
64 130 
64 132 
64 134 
64 135 
64 137 
64 140 
64 141 
64 144 
64 145 
64 147 
64 150 
64 152 
64 153 
64 156 
64 158 
64 159 
64 162 
64 163 
64 166 
64 168 
64 169 
64 171 
64 173 
64 176 
65 66 
65 89 
65 91 
65 94 
65 96 
65 98 
65 100 
65 102 
65 103 
65 105 
65 107 
65 110 
65 111 
65 114 
65 116 
65 118 
65 119 
65 121 
65 123 
65 125 
65 127 
65 130 
65 131 
65 133 
65 135 
65 138 
65 140 
65 141 
65 144 
65 145 
65 148 
65 150 
65 151 
65 153 
65 156 
65 157 
65 159 
65 162 
65 163 
65 166 
65 167 
65 169 
65 172 
65 174 
65 176 
66 90 
66 92 
66 93 
66 95 
66 97 
66 99 
66 101 
66 104 
66 106 
66 108 
66 109 
66 112 
66 113 
66 115 
66 117 
66 120 
66 122 
66 124 
66 126 
66 128 
66 129 
66 132 
66 134 
66 136 
66 137 
66 139 
66 142 
66 143 
66 146 
66 147 
66 149 
66 152 
66 154 
66 155 
66 158 
66 160 
66 161 
66 164 
66 165 
66 168 
66 170 
66 171 
66 173 
66 175 
67 68 
67 89 
67 92 
67 93 
67 96 
67 98 
67 100 
67 102 
67 104 
67 105 
67 107 
67 109 
67 112 
67 113 
67 116 
67 118 
67 120 
67 121 
67 123 
67 125 
67 127 
67 129 
67 132 
67 133 
67 135 
67 137 
67 140 
67 142 
67 143 
67 146 
67 147 
67 150 
67 152 
67 153 
67 155 
67 158 
67 159 
67 161 
67 164 
67 165 
67 168 
67 169 
67 171 
67 174 
67 176 
68 90 
68 91 
68 94 
68 95 
68 97 
68 99 
68 101 
68 103 
68 106 
68 108 
68 110 
68 111 
68 114 
68 115 
68 117 
68 119 
68 122 
68 124 
68 126 
68 128 
68 130 
68 131 
68 134 
68 136 
68 138 
68 139 
68 141 
68 144 
68 145 
68 148 
68 149 
68 151 
68 154 
68 156 
68 157 
68 160 
68 162 
68 163 
68 166 
68 167 
68 170 
68 172 
68 173 
68 175 
69 70 
69 89 
69 92 
69 94 
69 95 
69 98 
69 100 
69 102 
69 104 
69 106 
69 107 
69 109 
69 111 
69 114 
69 115 
69 118 
69 120 
69 122 
69 123 
69 125 
69 127 
69 129 
69 131 
69 134 
69 135 
69 137 
69 139 
69 142 
69 144 
69 145 
69 148 
69 149 
69 152 
69 154 
69 155 
69 157 
69 160 
69 161 
69 163 
69 166 
69 167 
69 170 
69 171 
69 173 
69 176 
70 90 
70 91 
70 93 
70 96 
70 97 
70 99 
70 101 
70 103 
70 105 
70 108 
70 110 
70 112 
70 113 
70 116 
70 117 
70 119 
70 121 
70 124 
70 126 
70 128 
70 130 
70 132 
70 133 
70 136 
70 138 
70 140 
70 141 
70 143 
70 146 
70 147 
70 150 
70 151 
70 153 
70 156 
70 158 
70 159 
70 162 
70 164 
70 165 
70 168 
70 169 
70 172 
70 174 
70 175 
71 72 
71 89 
71 92 
71 94 
71 96 
71 97 
71 100 
71 102 
71 104 
71 106 
71 108 
71 109 
71 111 
71 113 
71 116 
71 117 
71 120 
71 122 
71 124 
71 125 
71 127 
71 129 
71 131 
71 133 
71 136 
71 137 
71 139 
71 141 
71 144 
71 146 
71 147 
71 150 
71 151 
71 154 
71 156 
71 157 
71 159 
71 162 
71 163 
71 165 
71 168 
71 169 
71 172 
71 173 
71 175 
72 90 
72 91 
72 93 
72 95 
72 98 
72 99 
72 101 
72 103 
72 105 
72 107 
72 110 
72 112 
72 114 
72 115 
72 118 
72 119 
72 121 
72 123 
72 126 
72 128 
72 130 
72 132 
72 134 
72 135 
72 138 
72 140 
72 142 
72 143 
72 145 
72 148 
72 149 
72 152 
72 153 
72 155 
72 158 
72 160 
72 161 
72 164 
72 166 
72 167 
72 170 
72 171 
72 174 
72 176 
73 74 
73 89 
73 91 
73 94 
73 96 
73 98 
73 99 
73 102 
73 104 
73 106 
73 108 
73 110 
73 111 
73 113 
73 115 
73 118 
73 119 
73 122 
73 124 
73 126 
73 127 
73 129 
73 131 
73 133 
73 135 
73 138 
73 139 
73 141 
73 143 
73 146 
73 148 
73 149 
73 152 
73 153 
73 156 
73 158 
73 159 
73 161 
73 164 
73 165 
73 167 
73 170 
73 171 
73 174 
73 175 
74 90 
74 92 
74 93 
74 95 
74 97 
74 100 
74 101 
74 103 
74 105 
74 107 
74 109 
74 112 
74 114 
74 116 
74 117 
74 120 
74 121 
74 123 
74 125 
74 128 
74 130 
74 132 
74 134 
74 136 
74 137 
74 140 
74 142 
74 144 
74 145 
74 147 
74 150 
74 151 
74 154 
74 155 
74 157 
74 160 
74 162 
74 163 
74 166 
74 168 
74 169 
74 172 
74 173 
74 176 
75 76 
75 89 
75 91 
75 93 
75 96 
75 98 
75 100 
75 101 
75 104 
75 106 
75 108 
75 110 
75 112 
75 113 
75 115 
75 117 
75 120 
75 121 
75 124 
75 126 
75 128 
75 129 
75 131 
75 133 
75 135 
75 137 
75 140 
75 141 
75 143 
75 145 
75 148 
75 150 
75 151 
75 154 
75 155 
75 158 
75 160 
75 161 
75 163 
75 166 
75 167 
75 169 
75 172 
75 173 
75 176 
76 90 
76 92 
76 94 
76 95 
76 97 
76 99 
76 102 
76 103 
76 105 
76 107 
76 109 
76 111 
76 114 
76 116 
76 118 
76 119 
76 122 
76 123 
76 125 
76 127 
76 130 
76 132 
76 134 
76 136 
76 138 
76 139 
76 142 
76 144 
76 146 
76 147 
76 149 
76 152 
76 153 
76 156 
76 157 
76 159 
76 162 
76 164 
76 165 
76 168 
76 170 
76 171 
76 174 
76 175 
77 78 
77 89 
77 92 
77 93 
77 95 
77 98 
77 100 
77 102 
77 103 
77 106 
77 108 
77 110 
77 112 
77 114 
77 115 
77 117 
77 119 
77 122 
77 123 
77 126 
77 128 
77 130 
77 131 
77 133 
77 135 
77 137 
77 139 
77 142 
77 143 
77 145 
77 147 
77 150 
77 152 
77 153 
77 156 
77 157 
77 160 
77 162 
77 163 
77 165 
77 168 
77 169 
77 171 
77 174 
77 175 
78 90 
78 91 
78 94 
78 96 
78 97 
78 99 
78 101 
78 104 
78 105 
78 107 
78 109 
78 111 
78 113 
78 116 
78 118 
78 120 
78 121 
78 124 
78 125 
78 127 
78 129 
78 132 
78 134 
78 136 
78 138 
78 140 
78 141 
78 144 
78 146 
78 148 
78 149 
78 151 
78 154 
78 155 
78 158 
78 159 
78 161 
78 164 
78 166 
78 167 
78 170 
78 172 
78 173 
78 176 
79 80 
79 89 
79 91 
79 94 
79 95 
79 97 
79 100 
79 102 
79 104 
79 105 
79 108 
79 110 
79 112 
79 114 
79 116 
79 117 
79 119 
79 121 
79 124 
79 125 
79 128 
79 130 
79 132 
79 133 
79 135 
79 137 
79 139 
79 141 
79 144 
79 145 
79 147 
79 149 
79 152 
79 154 
79 155 
79 158 
79 159 
79 162 
79 164 
79 165 
79 167 
79 170 
79 171 
79 173 
79 176 
80 90 
80 92 
80 93 
80 96 
80 98 
80 99 
80 101 
80 103 
80 106 
80 107 
80 109 
80 111 
80 113 
80 115 
80 118 
80 120 
80 122 
80 123 
80 126 
80 127 
80 129 
80 131 
80 134 
80 136 
80 138 
80 140 
80 142 
80 143 
80 146 
80 148 
80 150 
80 151 
80 153 
80 156 
80 157 
80 160 
80 161 
80 163 
80 166 
80 168 
80 169 
80 172 
80 174 
80 175 
81 82 
81 89 
81 92 
81 93 
81 96 
81 97 
81 99 
81 102 
81 104 
81 106 
81 107 
81 110 
81 112 
81 114 
81 116 
81 118 
81 119 
81 121 
81 123 
81 126 
81 127 
81 130 
81 132 
81 134 
81 135 
81 137 
81 139 
81 141 
81 143 
81 146 
81 147 
81 149 
81 151 
81 154 
81 156 
81 157 
81 160 
81 161 
81 164 
81 166 
81 167 
81 169 
81 172 
81 173 
81 175 
82 90 
82 91 
82 94 
82 95 
82 98 
82 100 
82 101 
82 103 
82 105 
82 108 
82 109 
82 111 
82 113 
82 115 
82 117 
82 120 
82 122 
82 124 
82 125 
82 128 
82 129 
82 131 
82 133 
82 136 
82 138 
82 140 
82 142 
82 144 
82 145 
82 148 
82 150 
82 152 
82 153 
82 155 
82 158 
82 159 
82 162 
82 163 
82 165 
82 168 
82 170 
82 171 
82 174 
82 176 
83 84 
83 89 
83 91 
83 94 
83 95 
83 98 
83 99 
83 101 
83 104 
83 106 
83 108 
83 109 
83 112 
83 114 
83 116 
83 118 
83 120 
83 121 
83 123 
83 125 
83 128 
83 129 
83 132 
83 134 
83 136 
83 137 
83 139 
83 141 
83 143 
83 145 
83 148 
83 149 
83 151 
83 153 
83 156 
83 158 
83 159 
83 162 
83 163 
83 166 
83 168 
83 169 
83 171 
83 174 
83 175 
84 90 
84 92 
84 93 
84 96 
84 97 
84 100 
84 102 
84 103 
84 105 
84 107 
84 110 
84 111 
84 113 
84 115 
84 117 
84 119 
84 122 
84 124 
84 126 
84 127 
84 130 
84 131 
84 133 
84 135 
84 138 
84 140 
84 142 
84 144 
84 146 
84 147 
84 150 
84 152 
84 154 
84 155 
84 157 
84 160 
84 161 
84 164 
84 165 
84 167 
84 170 
84 172 
84 173 
84 176 
85 86 
85 89 
85 91 
85 93 
85 96 
85 97 
85 100 
85 101 
85 103 
85 106 
85 108 
85 110 
85 111 
85 114 
85 116 
85 118 
85 120 
85 122 
85 123 
85 125 
85 127 
85 130 
85 131 
85 134 
85 136 
85 138 
85 139 
85 141 
85 143 
85 145 
85 147 
85 150 
85 151 
85 153 
85 155 
85 158 
85 160 
85 161 
85 164 
85 165 
85 168 
85 170 
85 171 
85 173 
85 176 
86 90 
86 92 
86 94 
86 95 
86 98 
86 99 
86 102 
86 104 
86 105 
86 107 
86 109 
86 112 
86 113 
86 115 
86 117 
86 119 
86 121 
86 124 
86 126 
86 128 
86 129 
86 132 
86 133 
86 135 
86 137 
86 140 
86 142 
86 144 
86 146 
86 148 
86 149 
86 152 
86 154 
86 156 
86 157 
86 159 
86 162 
86 163 
86 166 
86 167 
86 169 
86 172 
86 174 
86 175 
87 88 
87 89 
87 92 
87 93 
87 95 
87 98 
87 99 
87 102 
87 103 
87 105 
87 108 
87 110 
87 112 
87 113 
87 116 
87 118 
87 120 
87 122 
87 124 
87 125 
87 127 
87 129 
87 132 
87 133 
87 136 
87 138 
87 140 
87 141 
87 143 
87 145 
87 147 
87 149 
87 152 
87 153 
87 155 
87 157 
87 160 
87 162 
87 163 
87 166 
87 167 
87 170 
87 172 
87 173 
87 175 
88 90 
88 91 
88 94 
88 96 
88 97 
88 100 
88 101 
88 104 
88 106 
88 107 
88 109 
88 111 
88 114 
88 115 
88 117 
88 119 
88 121 
88 123 
88 126 
88 128 
88 130 
88 131 
88 134 
88 135 
88 137 
88 139 
88 142 
88 144 
88 146 
88 148 
88 150 
88 151 
88 154 
88 156 
88 158 
88 159 
88 161 
88 164 
88 165 
88 168 
88 169 
88 171 
88 174 
88 176 
89 90 
91 92 
93 94 
95 96 
97 98 
99 100 
101 102 
103 104 
105 106 
107 108 
109 110 
111 112 
113 114 
115 116 
117 118 
119 120 
121 122 
123 124 
125 126 
127 128 
129 130 
131 132 
133 134 
135 136 
137 138 
139 140 
141 142 
143 144 
145 146 
147 148 
149 150 
151 152 
153 154 
155 156 
157 158 
159 160 
161 162 
163 164 
165 166 
167 168 
169 170 
171 172 
173 174 
175 176 
